%%%mzn-stat: initTime=0.009334202
%%%mzn-stat: objective=304
%%%mzn-stat: nodes=23437
%%%mzn-stat: restarts=0
%%%mzn-stat: peakDepth=367
%%%mzn-stat: solveTime=1.416879357
%%%mzn-stat: variables=856
%%%mzn-stat: propagators=604
%%%mzn-stat: failures=6112
%%%mzn-stat: propagations=277041
%%%mzn-stat: nogoods=6112
%%%mzn-stat: AverageConflictSize=18.38383507853403
%%%mzn-stat: NumUnitNogoodsLearned=303
%%%mzn-stat: AverageLearnedNogoodLength=24.248036649214658
%%%mzn-stat: AverageBacktrackAmount=0
%%%mzn-stat: AverageLbd=13.393324607329843
%%%mzn-stat-end
maxleg = 304;
succ = array1d(1..50,[17, 10, 13, 50, 16, 21, 39, 45, 3, 7, 38, 28, 40, 11, 20, 47, 35, 9, 15, 8, 41, 32, 18, 42, 2, 23, 31, 6, 37, 25, 44, 29, 19, 12, 4, 22, 14, 24, 1, 34, 27, 48, 5, 46, 36, 33, 49, 30, 26, 43]);
% time elapsed: 3.01 s
----------
==========
% time elapsed: 3.01 s
%%%mzn-stat: initTime=0.009334202
%%%mzn-stat: objective=304
%%%mzn-stat: nodes=23437
%%%mzn-stat: restarts=0
%%%mzn-stat: peakDepth=367
%%%mzn-stat: solveTime=1.416883131
%%%mzn-stat: variables=856
%%%mzn-stat: propagators=604
%%%mzn-stat: failures=6112
%%%mzn-stat: propagations=277041
%%%mzn-stat: nogoods=6112
%%%mzn-stat: AverageConflictSize=18.38383507853403
%%%mzn-stat: NumUnitNogoodsLearned=303
%%%mzn-stat: AverageLearnedNogoodLength=24.248036649214658
%%%mzn-stat: AverageBacktrackAmount=0
%%%mzn-stat: AverageLbd=13.393324607329843
%%%mzn-stat-end
